# Objective value = 5
x0,1_2 0
x0,1_13 1
x0,1_20 0
x0,1_22 0
x0,1_29 0
x0,1_42 0
x0,1_49 0
x0,1_51 0
x0,1_62 0
x0,1_64 0
x0,2_2 0
x0,2_13 0
x0,2_20 0
x0,2_22 0
x0,2_29 0
x0,2_42 1
x0,2_49 0
x0,2_51 0
x0,2_62 0
x0,2_64 0
x0,3_2 0
x0,3_13 0
x0,3_20 0
x0,3_22 0
x0,3_29 0
x0,3_42 0
x0,3_49 0
x0,3_51 0
x0,3_62 1
x0,3_64 0
x0,4_2 0
x0,4_13 0
x0,4_20 0
x0,4_22 0
x0,4_29 0
x0,4_42 0
x0,4_49 0
x0,4_51 0
x0,4_62 0
x0,4_64 1
x0,5_2 0
x0,5_13 0
x0,5_20 0
x0,5_22 0
x0,5_29 0
x0,5_42 0
x0,5_49 0
x0,5_51 0
x0,5_62 0
x0,5_64 0
x0,6_2 0
x0,6_13 0
x0,6_20 0
x0,6_22 0
x0,6_29 0
x0,6_42 0
x0,6_49 0
x0,6_51 0
x0,6_62 0
x0,6_64 0
x0,7_2 0
x0,7_13 0
x0,7_20 0
x0,7_22 0
x0,7_29 0
x0,7_42 0
x0,7_49 0
x0,7_51 0
x0,7_62 0
x0,7_64 0
x0,8_2 0
x0,8_13 0
x0,8_20 0
x0,8_22 0
x0,8_29 0
x0,8_42 0
x0,8_49 0
x0,8_51 0
x0,8_62 0
x0,8_64 0
x0,9_2 0
x0,9_13 0
x0,9_20 0
x0,9_22 0
x0,9_29 0
x0,9_42 0
x0,9_49 0
x0,9_51 0
x0,9_62 0
x0,9_64 0
x0,10_2 0
x0,10_13 0
x0,10_20 0
x0,10_22 0
x0,10_29 0
x0,10_42 0
x0,10_49 0
x0,10_51 0
x0,10_62 0
x0,10_64 0
x1,2_2 0
x1,2_13 0
x1,2_20 0
x1,2_22 0
x1,2_29 1
x1,2_42 0
x1,2_49 0
x1,2_51 0
x1,2_62 0
x1,2_64 0
x1,3_2 0
x1,3_13 0
x1,3_20 0
x1,3_22 0
x1,3_29 0
x1,3_42 0
x1,3_49 1
x1,3_51 0
x1,3_62 0
x1,3_64 0
x1,4_2 0
x1,4_13 0
x1,4_20 0
x1,4_22 0
x1,4_29 0
x1,4_42 0
x1,4_49 0
x1,4_51 1
x1,4_62 0
x1,4_64 0
x1,5_2 0
x1,5_13 0
x1,5_20 0
x1,5_22 0
x1,5_29 0
x1,5_42 0
x1,5_49 0
x1,5_51 0
x1,5_62 0
x1,5_64 0
x1,6_2 0
x1,6_13 0
x1,6_20 0
x1,6_22 0
x1,6_29 0
x1,6_42 0
x1,6_49 0
x1,6_51 0
x1,6_62 0
x1,6_64 0
x1,7_2 0
x1,7_13 0
x1,7_20 0
x1,7_22 0
x1,7_29 0
x1,7_42 0
x1,7_49 0
x1,7_51 0
x1,7_62 0
x1,7_64 0
x1,8_2 0
x1,8_13 0
x1,8_20 0
x1,8_22 0
x1,8_29 0
x1,8_42 0
x1,8_49 0
x1,8_51 0
x1,8_62 0
x1,8_64 0
x1,9_2 0
x1,9_13 0
x1,9_20 0
x1,9_22 0
x1,9_29 0
x1,9_42 0
x1,9_49 0
x1,9_51 0
x1,9_62 0
x1,9_64 0
x1,10_2 0
x1,10_13 0
x1,10_20 0
x1,10_22 0
x1,10_29 0
x1,10_42 0
x1,10_49 0
x1,10_51 0
x1,10_62 0
x1,10_64 0
x2,3_2 0
x2,3_13 0
x2,3_20 1
x2,3_22 0
x2,3_29 0
x2,3_42 0
x2,3_49 0
x2,3_51 0
x2,3_62 0
x2,3_64 0
x2,4_2 0
x2,4_13 0
x2,4_20 0
x2,4_22 1
x2,4_29 0
x2,4_42 0
x2,4_49 0
x2,4_51 0
x2,4_62 0
x2,4_64 0
x2,5_2 0
x2,5_13 0
x2,5_20 0
x2,5_22 0
x2,5_29 0
x2,5_42 0
x2,5_49 0
x2,5_51 0
x2,5_62 0
x2,5_64 0
x2,6_2 0
x2,6_13 0
x2,6_20 0
x2,6_22 0
x2,6_29 0
x2,6_42 0
x2,6_49 0
x2,6_51 0
x2,6_62 0
x2,6_64 0
x2,7_2 0
x2,7_13 0
x2,7_20 0
x2,7_22 0
x2,7_29 0
x2,7_42 0
x2,7_49 0
x2,7_51 0
x2,7_62 0
x2,7_64 0
x2,8_2 0
x2,8_13 0
x2,8_20 0
x2,8_22 0
x2,8_29 0
x2,8_42 0
x2,8_49 0
x2,8_51 0
x2,8_62 0
x2,8_64 0
x2,9_2 0
x2,9_13 0
x2,9_20 0
x2,9_22 0
x2,9_29 0
x2,9_42 0
x2,9_49 0
x2,9_51 0
x2,9_62 0
x2,9_64 0
x2,10_2 0
x2,10_13 0
x2,10_20 0
x2,10_22 0
x2,10_29 0
x2,10_42 0
x2,10_49 0
x2,10_51 0
x2,10_62 0
x2,10_64 0
x3,4_2 1
x3,4_13 0
x3,4_20 0
x3,4_22 0
x3,4_29 0
x3,4_42 0
x3,4_49 0
x3,4_51 0
x3,4_62 0
x3,4_64 0
x3,5_2 0
x3,5_13 0
x3,5_20 0
x3,5_22 0
x3,5_29 0
x3,5_42 0
x3,5_49 0
x3,5_51 0
x3,5_62 0
x3,5_64 0
x3,6_2 0
x3,6_13 0
x3,6_20 0
x3,6_22 0
x3,6_29 0
x3,6_42 0
x3,6_49 0
x3,6_51 0
x3,6_62 0
x3,6_64 0
x3,7_2 0
x3,7_13 0
x3,7_20 0
x3,7_22 0
x3,7_29 0
x3,7_42 0
x3,7_49 0
x3,7_51 0
x3,7_62 0
x3,7_64 0
x3,8_2 0
x3,8_13 0
x3,8_20 0
x3,8_22 0
x3,8_29 0
x3,8_42 0
x3,8_49 0
x3,8_51 0
x3,8_62 0
x3,8_64 0
x3,9_2 0
x3,9_13 0
x3,9_20 0
x3,9_22 0
x3,9_29 0
x3,9_42 0
x3,9_49 0
x3,9_51 0
x3,9_62 0
x3,9_64 0
x3,10_2 0
x3,10_13 0
x3,10_20 0
x3,10_22 0
x3,10_29 0
x3,10_42 0
x3,10_49 0
x3,10_51 0
x3,10_62 0
x3,10_64 0
x4,5_2 0
x4,5_13 0
x4,5_20 0
x4,5_22 0
x4,5_29 0
x4,5_42 0
x4,5_49 0
x4,5_51 0
x4,5_62 0
x4,5_64 0
x4,6_2 0
x4,6_13 0
x4,6_20 0
x4,6_22 0
x4,6_29 0
x4,6_42 0
x4,6_49 0
x4,6_51 0
x4,6_62 0
x4,6_64 0
x4,7_2 0
x4,7_13 0
x4,7_20 0
x4,7_22 0
x4,7_29 0
x4,7_42 0
x4,7_49 0
x4,7_51 0
x4,7_62 0
x4,7_64 0
x4,8_2 0
x4,8_13 0
x4,8_20 0
x4,8_22 0
x4,8_29 0
x4,8_42 0
x4,8_49 0
x4,8_51 0
x4,8_62 0
x4,8_64 0
x4,9_2 0
x4,9_13 0
x4,9_20 0
x4,9_22 0
x4,9_29 0
x4,9_42 0
x4,9_49 0
x4,9_51 0
x4,9_62 0
x4,9_64 0
x4,10_2 0
x4,10_13 0
x4,10_20 0
x4,10_22 0
x4,10_29 0
x4,10_42 0
x4,10_49 0
x4,10_51 0
x4,10_62 0
x4,10_64 0
x5,6_2 0
x5,6_13 0
x5,6_20 0
x5,6_22 0
x5,6_29 0
x5,6_42 0
x5,6_49 0
x5,6_51 0
x5,6_62 0
x5,6_64 0
x5,7_2 0
x5,7_13 0
x5,7_20 0
x5,7_22 0
x5,7_29 0
x5,7_42 0
x5,7_49 0
x5,7_51 0
x5,7_62 0
x5,7_64 0
x5,8_2 0
x5,8_13 0
x5,8_20 0
x5,8_22 0
x5,8_29 0
x5,8_42 0
x5,8_49 0
x5,8_51 0
x5,8_62 0
x5,8_64 0
x5,9_2 0
x5,9_13 0
x5,9_20 0
x5,9_22 0
x5,9_29 0
x5,9_42 0
x5,9_49 0
x5,9_51 0
x5,9_62 0
x5,9_64 0
x5,10_2 0
x5,10_13 0
x5,10_20 0
x5,10_22 0
x5,10_29 0
x5,10_42 0
x5,10_49 0
x5,10_51 0
x5,10_62 0
x5,10_64 0
x6,7_2 0
x6,7_13 0
x6,7_20 0
x6,7_22 0
x6,7_29 0
x6,7_42 0
x6,7_49 0
x6,7_51 0
x6,7_62 0
x6,7_64 0
x6,8_2 0
x6,8_13 0
x6,8_20 0
x6,8_22 0
x6,8_29 0
x6,8_42 0
x6,8_49 0
x6,8_51 0
x6,8_62 0
x6,8_64 0
x6,9_2 0
x6,9_13 0
x6,9_20 0
x6,9_22 0
x6,9_29 0
x6,9_42 0
x6,9_49 0
x6,9_51 0
x6,9_62 0
x6,9_64 0
x6,10_2 0
x6,10_13 0
x6,10_20 0
x6,10_22 0
x6,10_29 0
x6,10_42 0
x6,10_49 0
x6,10_51 0
x6,10_62 0
x6,10_64 0
x7,8_2 0
x7,8_13 0
x7,8_20 0
x7,8_22 0
x7,8_29 0
x7,8_42 0
x7,8_49 0
x7,8_51 0
x7,8_62 0
x7,8_64 0
x7,9_2 0
x7,9_13 0
x7,9_20 0
x7,9_22 0
x7,9_29 0
x7,9_42 0
x7,9_49 0
x7,9_51 0
x7,9_62 0
x7,9_64 0
x7,10_2 0
x7,10_13 0
x7,10_20 0
x7,10_22 0
x7,10_29 0
x7,10_42 0
x7,10_49 0
x7,10_51 0
x7,10_62 0
x7,10_64 0
x8,9_2 0
x8,9_13 0
x8,9_20 0
x8,9_22 0
x8,9_29 0
x8,9_42 0
x8,9_49 0
x8,9_51 0
x8,9_62 0
x8,9_64 0
x8,10_2 0
x8,10_13 0
x8,10_20 0
x8,10_22 0
x8,10_29 0
x8,10_42 0
x8,10_49 0
x8,10_51 0
x8,10_62 0
x8,10_64 0
x9,10_2 0
x9,10_13 0
x9,10_20 0
x9,10_22 0
x9,10_29 0
x9,10_42 0
x9,10_49 0
x9,10_51 0
x9,10_62 0
x9,10_64 0
z0 1
z1 1
z2 1
z3 1
z4 1
z5 0
z6 0
z7 0
z8 0
z9 0
z10 0
p0 0
p1 13
p2 42
p3 62
p4 64
p5 66
p6 67
p7 68
p8 69
p9 74
p10 75
